(benchmark random_random67_smt
:extrafuns ((x0 BitVec[24]))
:extrafuns ((x1 BitVec[24]))
:extrafuns ((x2 BitVec[24]))
:extrafuns ((x3 BitVec[24]))
:extrafuns ((x4 BitVec[24]))
:extrafuns ((x5 BitVec[24]))
:extrafuns ((x6 BitVec[24]))
:extrafuns ((x7 BitVec[24]))
:extrafuns ((x8 BitVec[24]))
:extrafuns ((x9 BitVec[24]))
:extrafuns ((x10 BitVec[24]))
:extrafuns ((x11 BitVec[24]))
:extrafuns ((x12 BitVec[24]))
:extrafuns ((x13 BitVec[24]))
:extrafuns ((x14 BitVec[24]))
:extrafuns ((x15 BitVec[24]))
:extrafuns ((x16 BitVec[24]))
:extrafuns ((x17 BitVec[24]))
:extrafuns ((x18 BitVec[24]))
:extrafuns ((x19 BitVec[24]))


:formula (and (not (= (bvadd (bvmul bv8317016[24] x1) 
                        (bvadd (bvmul bv3721497[24] x2) 
                        (bvadd (bvmul bv3187170[24] x3) 
                        (bvadd (bvmul bv8473703[24] x4) 
                        (bvadd (bvmul bv456273[24] x5) 
                        (bvadd (bvmul bv13018623[24] x7) 
                        (bvadd (bvmul bv1687416[24] x9) 
                        (bvadd (bvmul bv910288[24] x10) 
                        (bvadd (bvmul bv5641359[24] x12) 
                        (bvadd (bvmul bv3335506[24] x13) 
                        (bvadd (bvmul bv13076762[24] x14) 
                        (bvadd (bvmul bv16553917[24] x15) 
                        (bvadd (bvmul bv86649[24] x17) 
                        (bvadd (bvmul bv13276366[24] x18) (bvmul bv7047581[24] x19)))))))))))))))
	              bv220649[24]))
         (and (not (= (bvadd (bvmul bv10017647[24] x1) 
                        (bvadd (bvmul bv2400700[24] x2) 
                        (bvadd (bvmul bv5165011[24] x3) 
                        (bvadd (bvmul bv6715329[24] x4) 
                        (bvadd (bvmul bv8402746[24] x6) 
                        (bvadd (bvmul bv14030918[24] x8) 
                        (bvadd (bvmul bv124654[24] x9) 
                        (bvadd (bvmul bv3069890[24] x12) 
                        (bvadd (bvmul bv13883537[24] x13) (bvmul bv13970187[24] x15))))))))))
	              bv6884410[24]))
         (and (not (= (bvadd (bvmul bv816102[24] x0) 
                        (bvadd (bvmul bv3216803[24] x2) 
                        (bvadd (bvmul bv14071603[24] x3) 
                        (bvadd (bvmul bv8939623[24] x7) 
                        (bvadd (bvmul bv7065768[24] x8) 
                        (bvadd (bvmul bv7919618[24] x12) 
                        (bvadd (bvmul bv2301832[24] x14) (bvmul bv15596554[24] x17))))))))
	              bv4415977[24]))
         (and (not (= (bvadd (bvmul bv9237398[24] x0) 
                        (bvadd (bvmul bv14054990[24] x1) 
                        (bvadd (bvmul bv7948724[24] x2) 
                        (bvadd (bvmul bv15309301[24] x8) 
                        (bvadd (bvmul bv2525892[24] x9) 
                        (bvadd (bvmul bv12788277[24] x12) 
                        (bvadd (bvmul bv269446[24] x13) 
                        (bvadd (bvmul bv2571279[24] x15) 
                        (bvadd (bvmul bv976811[24] x18) (bvmul bv613493[24] x19))))))))))
	              bv5392789[24]))
         (and (not (= (bvadd (bvmul bv4434922[24] x1) 
                        (bvadd (bvmul bv3202898[24] x4) 
                        (bvadd (bvmul bv11534463[24] x8) 
                        (bvadd (bvmul bv10059668[24] x11) (bvmul bv8759309[24] x19)))))
	              bv6170465[24]))
         (and (not (= (bvadd (bvmul bv15139335[24] x1) 
                        (bvadd (bvmul bv3792664[24] x3) 
                        (bvadd (bvmul bv9703883[24] x8) 
                        (bvadd (bvmul bv16019810[24] x9) 
                        (bvadd (bvmul bv1817373[24] x10) 
                        (bvadd (bvmul bv3318210[24] x11) 
                        (bvadd (bvmul bv14340677[24] x14) 
                        (bvadd (bvmul bv2671394[24] x15) 
                        (bvadd (bvmul bv6208094[24] x18) (bvmul bv1255326[24] x19))))))))))
	              bv12378559[24]))
         (and (not (= (bvadd (bvmul bv10740680[24] x1) 
                        (bvadd (bvmul bv9343143[24] x2) 
                        (bvadd (bvmul bv13681411[24] x3) 
                        (bvadd (bvmul bv4257115[24] x4) 
                        (bvadd (bvmul bv13960998[24] x6) 
                        (bvadd (bvmul bv9765406[24] x7) 
                        (bvadd (bvmul bv11610290[24] x8) 
                        (bvadd (bvmul bv1873899[24] x10) 
                        (bvadd (bvmul bv12736270[24] x11) 
                        (bvadd (bvmul bv9518620[24] x12) 
                        (bvadd (bvmul bv2563536[24] x13) 
                        (bvadd (bvmul bv7903682[24] x14) 
                        (bvadd (bvmul bv10737918[24] x15) 
                        (bvadd (bvmul bv4372975[24] x16) 
                        (bvadd (bvmul bv3373240[24] x17) 
                        (bvadd (bvmul bv10801440[24] x18) (bvmul bv12869786[24] x19)))))))))))))))))
	              bv7705637[24]))
         (and (not (= (bvadd (bvmul bv1260043[24] x4) 
                        (bvadd (bvmul bv10350865[24] x5) 
                        (bvadd (bvmul bv15345182[24] x6) 
                        (bvadd (bvmul bv14744233[24] x7) 
                        (bvadd (bvmul bv5668313[24] x8) 
                        (bvadd (bvmul bv3134823[24] x9) 
                        (bvadd (bvmul bv249029[24] x11) 
                        (bvadd (bvmul bv8739546[24] x12) 
                        (bvadd (bvmul bv4584238[24] x13) 
                        (bvadd (bvmul bv9305565[24] x14) 
                        (bvadd (bvmul bv3329791[24] x16) (bvmul bv11965578[24] x19))))))))))))
	              bv7891220[24]))
         (and (not (= (bvadd (bvmul bv5424690[24] x1) 
                        (bvadd (bvmul bv15775556[24] x3) 
                        (bvadd (bvmul bv7150790[24] x4) 
                        (bvadd (bvmul bv14599951[24] x5) 
                        (bvadd (bvmul bv12004331[24] x7) 
                        (bvadd (bvmul bv4150847[24] x10) 
                        (bvadd (bvmul bv3934580[24] x11) 
                        (bvadd (bvmul bv1906930[24] x12) 
                        (bvadd (bvmul bv11718850[24] x15) 
                        (bvadd (bvmul bv13761058[24] x16) (bvmul bv10374389[24] x19)))))))))))
	              bv7756707[24]))
         (and (not (= (bvadd (bvmul bv11519306[24] x1) 
                        (bvadd (bvmul bv14797422[24] x2) 
                        (bvadd (bvmul bv4908711[24] x3) 
                        (bvadd (bvmul bv5675705[24] x5) 
                        (bvadd (bvmul bv6223965[24] x8) 
                        (bvadd (bvmul bv13728370[24] x9) 
                        (bvadd (bvmul bv5453588[24] x12) 
                        (bvadd (bvmul bv15543229[24] x15) (bvmul bv12301842[24] x16)))))))))
	              bv11623573[24]))
         (and (not (= (bvadd (bvmul bv10426361[24] x0) 
                        (bvadd (bvmul bv4949554[24] x1) 
                        (bvadd (bvmul bv16324578[24] x3) 
                        (bvadd (bvmul bv15393453[24] x4) 
                        (bvadd (bvmul bv1991483[24] x5) 
                        (bvadd (bvmul bv11569006[24] x7) 
                        (bvadd (bvmul bv12789914[24] x8) 
                        (bvadd (bvmul bv12713364[24] x9) 
                        (bvadd (bvmul bv3831898[24] x10) 
                        (bvadd (bvmul bv2157584[24] x14) 
                        (bvadd (bvmul bv3406767[24] x16) 
                        (bvadd (bvmul bv15030341[24] x18) (bvmul bv10355559[24] x19)))))))))))))
	              bv8898565[24]))
         (and (not (= (bvadd (bvmul bv16180450[24] x4) 
                        (bvadd (bvmul bv69887[24] x5) 
                        (bvadd (bvmul bv11638893[24] x7) 
                        (bvadd (bvmul bv5534922[24] x8) 
                        (bvadd (bvmul bv8493683[24] x13) 
                        (bvadd (bvmul bv8769094[24] x14) 
                        (bvadd (bvmul bv1252690[24] x15) 
                        (bvadd (bvmul bv7709832[24] x17) (bvmul bv7597223[24] x19)))))))))
	              bv14508999[24]))
         (and (not (= (bvadd (bvmul bv16271625[24] x1) 
                        (bvadd (bvmul bv4622745[24] x4) 
                        (bvadd (bvmul bv14419916[24] x5) 
                        (bvadd (bvmul bv1704193[24] x8) 
                        (bvadd (bvmul bv12663434[24] x9) 
                        (bvadd (bvmul bv16552743[24] x10) 
                        (bvadd (bvmul bv2143265[24] x15) 
                        (bvadd (bvmul bv16201301[24] x17) 
                        (bvadd (bvmul bv1583947[24] x18) (bvmul bv128794[24] x19))))))))))
	              bv16092947[24]))
         (and (not (= (bvadd (bvmul bv12562964[24] x0) 
                        (bvadd (bvmul bv4610057[24] x1) 
                        (bvadd (bvmul bv13160171[24] x2) 
                        (bvadd (bvmul bv8997712[24] x3) 
                        (bvadd (bvmul bv16201527[24] x4) 
                        (bvadd (bvmul bv3307252[24] x5) 
                        (bvadd (bvmul bv15970687[24] x7) 
                        (bvadd (bvmul bv9362362[24] x8) 
                        (bvadd (bvmul bv854360[24] x10) 
                        (bvadd (bvmul bv3716639[24] x17) (bvmul bv13676226[24] x18)))))))))))
	              bv13547507[24]))
         (and (not (= (bvadd (bvmul bv1842514[24] x0) 
                        (bvadd (bvmul bv10613153[24] x3) 
                        (bvadd (bvmul bv9028344[24] x4) 
                        (bvadd (bvmul bv12422906[24] x5) 
                        (bvadd (bvmul bv11165971[24] x6) 
                        (bvadd (bvmul bv4670290[24] x8) 
                        (bvadd (bvmul bv13822500[24] x9) 
                        (bvadd (bvmul bv15449248[24] x10) 
                        (bvadd (bvmul bv4091179[24] x11) 
                        (bvadd (bvmul bv1471116[24] x17) 
                        (bvadd (bvmul bv12972883[24] x18) (bvmul bv7054830[24] x19))))))))))))
	              bv14815398[24]))
         (and (not (= (bvadd (bvmul bv12343820[24] x0) 
                        (bvadd (bvmul bv10234913[24] x1) 
                        (bvadd (bvmul bv5291999[24] x2) 
                        (bvadd (bvmul bv10731523[24] x6) 
                        (bvadd (bvmul bv2554210[24] x7) 
                        (bvadd (bvmul bv9424735[24] x8) 
                        (bvadd (bvmul bv6034384[24] x11) 
                        (bvadd (bvmul bv13033339[24] x12) 
                        (bvadd (bvmul bv12982259[24] x13) 
                        (bvadd (bvmul bv5421553[24] x14) 
                        (bvadd (bvmul bv11320037[24] x15) 
                        (bvadd (bvmul bv1597653[24] x17) 
                        (bvadd (bvmul bv12316543[24] x18) (bvmul bv12696275[24] x19))))))))))))))
	              bv5774242[24]))
         (and (not (= (bvadd (bvmul bv12516563[24] x2) 
                        (bvadd (bvmul bv9707536[24] x6) 
                        (bvadd (bvmul bv7088411[24] x7) 
                        (bvadd (bvmul bv5464083[24] x8) 
                        (bvadd (bvmul bv907912[24] x9) 
                        (bvadd (bvmul bv12454249[24] x10) 
                        (bvadd (bvmul bv10560016[24] x11) 
                        (bvadd (bvmul bv1810506[24] x12) (bvmul bv2708950[24] x19)))))))))
	              bv15779410[24]))
         (and (not (= (bvadd (bvmul bv213255[24] x1) 
                        (bvadd (bvmul bv5465864[24] x2) 
                        (bvadd (bvmul bv16715587[24] x5) 
                        (bvadd (bvmul bv10179590[24] x6) 
                        (bvadd (bvmul bv15643673[24] x8) 
                        (bvadd (bvmul bv13221430[24] x10) 
                        (bvadd (bvmul bv8801271[24] x14) 
                        (bvadd (bvmul bv15475985[24] x15) 
                        (bvadd (bvmul bv2616939[24] x16) (bvmul bv2310014[24] x18))))))))))
	              bv14314330[24]))
         (and (not (= (bvadd (bvmul bv14527586[24] x1) 
                        (bvadd (bvmul bv527100[24] x5) 
                        (bvadd (bvmul bv8892831[24] x6) 
                        (bvadd (bvmul bv6990223[24] x7) 
                        (bvadd (bvmul bv13437917[24] x9) 
                        (bvadd (bvmul bv6017364[24] x10) 
                        (bvadd (bvmul bv2624876[24] x11) 
                        (bvadd (bvmul bv10314377[24] x12) 
                        (bvadd (bvmul bv11484788[24] x13) 
                        (bvadd (bvmul bv6877933[24] x14) 
                        (bvadd (bvmul bv13256609[24] x15) (bvmul bv3431808[24] x17))))))))))))
	              bv3333522[24]))
         (and (not (= (bvadd (bvmul bv8701101[24] x1) 
                        (bvadd (bvmul bv688848[24] x4) 
                        (bvadd (bvmul bv3157677[24] x5) 
                        (bvadd (bvmul bv4339774[24] x8) 
                        (bvadd (bvmul bv1970976[24] x9) 
                        (bvadd (bvmul bv14992572[24] x11) 
                        (bvadd (bvmul bv10831427[24] x12) (bvmul bv5675515[24] x13))))))))
	              bv9294970[24]))
         (and (not (= (bvadd (bvmul bv8920240[24] x0) 
                        (bvadd (bvmul bv10442528[24] x1) 
                        (bvadd (bvmul bv886471[24] x3) 
                        (bvadd (bvmul bv11409568[24] x4) 
                        (bvadd (bvmul bv2311425[24] x6) 
                        (bvadd (bvmul bv6651199[24] x8) 
                        (bvadd (bvmul bv11154596[24] x9) 
                        (bvadd (bvmul bv14332432[24] x10) 
                        (bvadd (bvmul bv6438773[24] x11) 
                        (bvadd (bvmul bv9318790[24] x14) 
                        (bvadd (bvmul bv14269199[24] x15) 
                        (bvadd (bvmul bv15976732[24] x16) (bvmul bv11998943[24] x19)))))))))))))
	              bv1399642[24]))
         (and (not (= (bvadd (bvmul bv12120362[24] x1) 
                        (bvadd (bvmul bv9415130[24] x7) 
                        (bvadd (bvmul bv15715340[24] x8) 
                        (bvadd (bvmul bv5120286[24] x11) 
                        (bvadd (bvmul bv15153305[24] x12) 
                        (bvadd (bvmul bv1037605[24] x13) 
                        (bvadd (bvmul bv6048507[24] x14) 
                        (bvadd (bvmul bv7982363[24] x15) 
                        (bvadd (bvmul bv11061066[24] x17) (bvmul bv6048015[24] x18))))))))))
	              bv14516272[24]))
         (and (not (= (bvadd (bvmul bv2348651[24] x0) 
                        (bvadd (bvmul bv4029024[24] x1) 
                        (bvadd (bvmul bv16612135[24] x2) 
                        (bvadd (bvmul bv11077816[24] x3) 
                        (bvadd (bvmul bv4712533[24] x4) 
                        (bvadd (bvmul bv12227180[24] x7) 
                        (bvadd (bvmul bv620674[24] x8) 
                        (bvadd (bvmul bv14927808[24] x9) 
                        (bvadd (bvmul bv12009504[24] x10) 
                        (bvadd (bvmul bv3398899[24] x11) 
                        (bvadd (bvmul bv8333983[24] x13) (bvmul bv10907188[24] x14))))))))))))
	              bv2761421[24]))
         (and (not (= (bvadd (bvmul bv4648610[24] x0) 
                        (bvadd (bvmul bv12106795[24] x1) 
                        (bvadd (bvmul bv5548861[24] x2) 
                        (bvadd (bvmul bv12065828[24] x5) 
                        (bvadd (bvmul bv779610[24] x8) 
                        (bvadd (bvmul bv14907217[24] x10) 
                        (bvadd (bvmul bv1854683[24] x11) 
                        (bvadd (bvmul bv453335[24] x15) 
                        (bvadd (bvmul bv14536282[24] x16) (bvmul bv171522[24] x18))))))))))
	              bv15782184[24]))
         (and (not (= (bvadd (bvmul bv10134441[24] x0) 
                        (bvadd (bvmul bv7772977[24] x1) 
                        (bvadd (bvmul bv15802089[24] x2) 
                        (bvadd (bvmul bv14739002[24] x3) 
                        (bvadd (bvmul bv7290232[24] x4) 
                        (bvadd (bvmul bv945748[24] x5) 
                        (bvadd (bvmul bv2214460[24] x7) 
                        (bvadd (bvmul bv13807550[24] x8) 
                        (bvadd (bvmul bv14198957[24] x9) 
                        (bvadd (bvmul bv803904[24] x10) 
                        (bvadd (bvmul bv8422121[24] x11) 
                        (bvadd (bvmul bv6181188[24] x13) (bvmul bv6979059[24] x17)))))))))))))
	              bv455073[24]))
         (and (not (= (bvadd (bvmul bv15046997[24] x0) 
                        (bvadd (bvmul bv5016275[24] x1) 
                        (bvadd (bvmul bv10128883[24] x2) 
                        (bvadd (bvmul bv11129508[24] x3) 
                        (bvadd (bvmul bv14659857[24] x4) 
                        (bvadd (bvmul bv13289092[24] x5) 
                        (bvadd (bvmul bv7060177[24] x6) 
                        (bvadd (bvmul bv7648659[24] x7) 
                        (bvadd (bvmul bv6771207[24] x9) 
                        (bvadd (bvmul bv14065700[24] x10) 
                        (bvadd (bvmul bv9798221[24] x14) 
                        (bvadd (bvmul bv16677685[24] x15) (bvmul bv3210614[24] x16)))))))))))))
	              bv16612706[24]))
         (and (not (= (bvadd (bvmul bv14489181[24] x0) 
                        (bvadd (bvmul bv5377340[24] x1) 
                        (bvadd (bvmul bv4261792[24] x2) 
                        (bvadd (bvmul bv9154279[24] x6) 
                        (bvadd (bvmul bv4358343[24] x7) 
                        (bvadd (bvmul bv8809470[24] x8) 
                        (bvadd (bvmul bv12038014[24] x9) 
                        (bvadd (bvmul bv15483524[24] x11) 
                        (bvadd (bvmul bv5775497[24] x12) 
                        (bvadd (bvmul bv7753998[24] x13) 
                        (bvadd (bvmul bv6031512[24] x16) (bvmul bv5867004[24] x18))))))))))))
	              bv10156975[24]))
         (and (not (= (bvadd (bvmul bv6824375[24] x0) 
                        (bvadd (bvmul bv4315336[24] x3) 
                        (bvadd (bvmul bv90639[24] x6) 
                        (bvadd (bvmul bv11466094[24] x7) 
                        (bvadd (bvmul bv5504721[24] x8) 
                        (bvadd (bvmul bv1581592[24] x10) 
                        (bvadd (bvmul bv15484776[24] x14) 
                        (bvadd (bvmul bv704951[24] x15) 
                        (bvadd (bvmul bv2287355[24] x16) 
                        (bvadd (bvmul bv5339967[24] x17) (bvmul bv15496942[24] x19)))))))))))
	              bv7208524[24]))
         (and (not (= (bvadd (bvmul bv10659709[24] x2) 
                        (bvadd (bvmul bv676536[24] x4) 
                        (bvadd (bvmul bv11828921[24] x6) 
                        (bvadd (bvmul bv6827646[24] x7) 
                        (bvadd (bvmul bv12779275[24] x12) 
                        (bvadd (bvmul bv5958198[24] x13) 
                        (bvadd (bvmul bv5750954[24] x14) 
                        (bvadd (bvmul bv9721763[24] x18) (bvmul bv9495281[24] x19)))))))))
	              bv8441491[24]))
         (and (not (= (bvadd (bvmul bv9382453[24] x1) 
                        (bvadd (bvmul bv14985358[24] x4) 
                        (bvadd (bvmul bv12912894[24] x6) 
                        (bvadd (bvmul bv13225032[24] x7) 
                        (bvadd (bvmul bv8011823[24] x10) 
                        (bvadd (bvmul bv4013884[24] x12) 
                        (bvadd (bvmul bv14568166[24] x13) 
                        (bvadd (bvmul bv844669[24] x14) 
                        (bvadd (bvmul bv3421191[24] x17) 
                        (bvadd (bvmul bv8298434[24] x18) (bvmul bv4491341[24] x19)))))))))))
	              bv14922414[24]))
         (and (not (= (bvadd (bvmul bv15293662[24] x1) 
                        (bvadd (bvmul bv11735333[24] x2) 
                        (bvadd (bvmul bv14792682[24] x3) 
                        (bvadd (bvmul bv9637485[24] x4) 
                        (bvadd (bvmul bv7993388[24] x5) 
                        (bvadd (bvmul bv14711851[24] x6) 
                        (bvadd (bvmul bv7849303[24] x10) 
                        (bvadd (bvmul bv14206599[24] x11) 
                        (bvadd (bvmul bv1883485[24] x13) 
                        (bvadd (bvmul bv5131819[24] x14) 
                        (bvadd (bvmul bv1443935[24] x17) (bvmul bv11575454[24] x18))))))))))))
	              bv7315885[24]))
         (and (not (= (bvadd (bvmul bv1039629[24] x0) 
                        (bvadd (bvmul bv13819575[24] x3) 
                        (bvadd (bvmul bv13529151[24] x4) 
                        (bvadd (bvmul bv11463788[24] x6) 
                        (bvadd (bvmul bv16112994[24] x7) 
                        (bvadd (bvmul bv12479861[24] x8) 
                        (bvadd (bvmul bv13757892[24] x11) 
                        (bvadd (bvmul bv6658789[24] x13) 
                        (bvadd (bvmul bv320193[24] x14) 
                        (bvadd (bvmul bv5212113[24] x15) (bvmul bv13144726[24] x19)))))))))))
	              bv10102254[24]))
         (and (not (= (bvadd (bvmul bv15418730[24] x0) 
                        (bvadd (bvmul bv12461090[24] x2) 
                        (bvadd (bvmul bv6264619[24] x3) 
                        (bvadd (bvmul bv951192[24] x5) 
                        (bvadd (bvmul bv11431648[24] x6) 
                        (bvadd (bvmul bv9263700[24] x7) 
                        (bvadd (bvmul bv6553890[24] x11) 
                        (bvadd (bvmul bv5478983[24] x12) 
                        (bvadd (bvmul bv14508655[24] x13) 
                        (bvadd (bvmul bv6917361[24] x16) 
                        (bvadd (bvmul bv3284873[24] x18) (bvmul bv2593895[24] x19))))))))))))
	              bv1926388[24]))
         (and (not (= (bvadd (bvmul bv12106578[24] x0) 
                        (bvadd (bvmul bv13620299[24] x1) 
                        (bvadd (bvmul bv8938954[24] x3) 
                        (bvadd (bvmul bv3593388[24] x5) 
                        (bvadd (bvmul bv4377428[24] x6) 
                        (bvadd (bvmul bv6509673[24] x13) 
                        (bvadd (bvmul bv10057537[24] x15) (bvmul bv10324941[24] x18))))))))
	              bv10499012[24]))
         (and (not (= (bvadd (bvmul bv6172010[24] x0) 
                        (bvadd (bvmul bv2112164[24] x5) 
                        (bvadd (bvmul bv12387356[24] x6) 
                        (bvadd (bvmul bv122014[24] x7) 
                        (bvadd (bvmul bv1603320[24] x8) 
                        (bvadd (bvmul bv8376479[24] x10) 
                        (bvadd (bvmul bv3897491[24] x11) 
                        (bvadd (bvmul bv2762884[24] x12) 
                        (bvadd (bvmul bv14476731[24] x13) 
                        (bvadd (bvmul bv3687486[24] x14) 
                        (bvadd (bvmul bv14544235[24] x15) 
                        (bvadd (bvmul bv2012642[24] x17) (bvmul bv5577495[24] x18)))))))))))))
	              bv1771626[24]))
         (and (not (= (bvadd (bvmul bv11966927[24] x0) 
                        (bvadd (bvmul bv2667138[24] x3) 
                        (bvadd (bvmul bv2789152[24] x5) 
                        (bvadd (bvmul bv12908305[24] x6) 
                        (bvadd (bvmul bv4507570[24] x8) 
                        (bvadd (bvmul bv291240[24] x10) 
                        (bvadd (bvmul bv944030[24] x13) 
                        (bvadd (bvmul bv13878905[24] x14) 
                        (bvadd (bvmul bv10846078[24] x15) (bvmul bv8908345[24] x19))))))))))
	              bv6865528[24]))
         (and (bvule      (bvadd (bvmul bv4098058[24] x0) 
                        (bvadd (bvmul bv16054202[24] x1) 
                        (bvadd (bvmul bv1777791[24] x3) 
                        (bvadd (bvmul bv1683117[24] x4) 
                        (bvadd (bvmul bv8836011[24] x5) 
                        (bvadd (bvmul bv7487257[24] x6) 
                        (bvadd (bvmul bv11402063[24] x7) 
                        (bvadd (bvmul bv15539822[24] x9) 
                        (bvadd (bvmul bv11625580[24] x10) 
                        (bvadd (bvmul bv3888059[24] x11) 
                        (bvadd (bvmul bv15194904[24] x12) 
                        (bvadd (bvmul bv15264835[24] x13) 
                        (bvadd (bvmul bv3050825[24] x14) 
                        (bvadd (bvmul bv8049727[24] x15) 
                        (bvadd (bvmul bv2989006[24] x16) 
                        (bvadd (bvmul bv6143180[24] x17) (bvmul bv5037144[24] x19)))))))))))))))))
	              bv4043786[24])
         (and (bvule      (bvadd (bvmul bv6720262[24] x0) 
                        (bvadd (bvmul bv9913176[24] x3) 
                        (bvadd (bvmul bv11372300[24] x4) 
                        (bvadd (bvmul bv11735412[24] x5) 
                        (bvadd (bvmul bv7193842[24] x6) 
                        (bvadd (bvmul bv11081901[24] x8) 
                        (bvadd (bvmul bv8259235[24] x9) 
                        (bvadd (bvmul bv13798670[24] x10) 
                        (bvadd (bvmul bv7624136[24] x12) 
                        (bvadd (bvmul bv5228788[24] x13) 
                        (bvadd (bvmul bv10820915[24] x14) 
                        (bvadd (bvmul bv12879137[24] x15) (bvmul bv145709[24] x17)))))))))))))
	              bv2571628[24])
         (and (bvule      (bvadd (bvmul bv16701663[24] x2) 
                        (bvadd (bvmul bv11659861[24] x4) 
                        (bvadd (bvmul bv16527268[24] x5) 
                        (bvadd (bvmul bv259[24] x8) 
                        (bvadd (bvmul bv3093564[24] x9) 
                        (bvadd (bvmul bv2999359[24] x10) 
                        (bvadd (bvmul bv4645850[24] x11) 
                        (bvadd (bvmul bv12493405[24] x14) 
                        (bvadd (bvmul bv11360916[24] x15) (bvmul bv11506625[24] x17))))))))))
	              bv14078254[24])
              (bvule      (bvadd (bvmul bv9785845[24] x1) 
                        (bvadd (bvmul bv2342055[24] x3) 
                        (bvadd (bvmul bv12924063[24] x8) 
                        (bvadd (bvmul bv15493815[24] x11) 
                        (bvadd (bvmul bv14423626[24] x12) 
                        (bvadd (bvmul bv1281198[24] x14) 
                        (bvadd (bvmul bv13205145[24] x17) (bvmul bv14149394[24] x18))))))))
	              bv12737022[24])
	 )))))))))))))))))))))))))))))))))))))))

)
